unsat
(forall ((A (_ BitVec 20))
         (B (_ BitVec 20))
         (C (_ BitVec 20))
         (D (_ BitVec 20))
         (E (_ BitVec 20))
         (F (_ BitVec 20))
         (G (_ BitVec 20))
         (H (_ BitVec 20))
         (I (_ BitVec 20))
         (J (_ BitVec 20))
         (K (_ BitVec 20))
         (L (_ BitVec 20))
         (M (_ BitVec 20))
         (N (_ BitVec 22))
         (O (_ BitVec 14))
         (P (_ BitVec 14))
         (Q (_ BitVec 17))
         (R (_ BitVec 20))
         (S (_ BitVec 20))
         (T (_ BitVec 20))
         (U (_ BitVec 20))
         (V (_ BitVec 20))
         (W (_ BitVec 20))
         (X (_ BitVec 20))
         (Y (_ BitVec 20))
         (Z (_ BitVec 20))
         (A1 (_ BitVec 38))
         (B1 (_ BitVec 38))
         (C1 (_ BitVec 38))
         (D1 (_ BitVec 38))
         (E1 (_ BitVec 20))
         (F1 (_ BitVec 20))
         (G1 (_ BitVec 20))
         (H1 (_ BitVec 20))
         (I1 (_ BitVec 20))
         (J1 (_ BitVec 17))
         (K1 (_ BitVec 17))
         (L1 (_ BitVec 17))
         (M1 (_ BitVec 18))
         (N1 (_ BitVec 1))
         (O1 (_ BitVec 9))
         (P1 (_ BitVec 20))
         (Q1 (_ BitVec 37))
         (R1 (_ BitVec 22))
         (S1 (_ BitVec 20))
         (T1 (_ BitVec 20))
         (U1 (_ BitVec 22))
         (V1 (_ BitVec 14))
         (W1 (_ BitVec 22))
         (X1 (_ BitVec 22))
         (Y1 (_ BitVec 14))
         (Z1 (_ BitVec 22))
         (A2 (_ BitVec 14))
         (B2 (_ BitVec 22))
         (C2 (_ BitVec 20))
         (D2 (_ BitVec 1))
         (E2 (_ BitVec 20))
         (F2 (_ BitVec 17))
         (G2 (_ BitVec 20))
         (H2 (_ BitVec 20))
         (I2 (_ BitVec 20))
         (J2 (_ BitVec 1))
         (K2 (_ BitVec 14))
         (L2 (_ BitVec 20))
         (M2 (_ BitVec 20))
         (N2 (_ BitVec 38))
         (O2 (_ BitVec 20))
         (P2 (_ BitVec 20))
         (Q2 (_ BitVec 1))
         (R2 (_ BitVec 1))
         (S2 (_ BitVec 20))
         (T2 (_ BitVec 20))
         (U2 (_ BitVec 20))
         (V2 (_ BitVec 18))
         (W2 (_ BitVec 1))
         (X2 (_ BitVec 22))
         (Y2 (_ BitVec 20))
         (Z2 (_ BitVec 20))
         (A3 (_ BitVec 20))
         (B3 (_ BitVec 20))
         (C3 (_ BitVec 20))
         (D3 (_ BitVec 20))
         (E3 (_ BitVec 20))
         (F3 (_ BitVec 18))
         (G3 (_ BitVec 17))
         (H3 (_ BitVec 17))
         (I3 (_ BitVec 20))
         (J3 (_ BitVec 20))
         (K3 (_ BitVec 38))
         (L3 (_ BitVec 22))
         (M3 (_ BitVec 1))
         (N3 (_ BitVec 14))
         (O3 (_ BitVec 38))
         (P3 (_ BitVec 14))
         (Q3 (_ BitVec 20))
         (R3 (_ BitVec 16))
         (S3 (_ BitVec 17))
         (T3 (_ BitVec 38))
         (U3 (_ BitVec 30))
         (V3 (_ BitVec 30))
         (W3 (_ BitVec 38))
         (X3 (_ BitVec 20))
         (Y3 (_ BitVec 1))
         (Z3 (_ BitVec 20))
         (A4 (_ BitVec 20))
         (B4 (_ BitVec 20))
         (C4 (_ BitVec 20))
         (D4 (_ BitVec 16))
         (E4 (_ BitVec 1))
         (F4 (_ BitVec 17))
         (G4 (_ BitVec 17))
         (H4 (_ BitVec 38))
         (I4 (_ BitVec 20))
         (J4 (_ BitVec 1))
         (K4 (_ BitVec 1))
         (L4 (_ BitVec 30))
         (M4 (_ BitVec 1))
         (N4 (_ BitVec 38))
         (O4 (_ BitVec 30)))
  (! (let ((a!1 (= ((_ extract 22 2)
                     (bvadd (concat #b00 W1) ((_ extract 37 14) H4)))
                   #b000000000000000000000))
           (a!2 (= ((_ extract 24 4)
                     (bvadd (concat #x0 X1) ((_ extract 37 12) A1)))
                   #b000000000000000000000))
           (a!3 (= ((_ extract 3 2)
                     (bvadd (concat #x0 X1) ((_ extract 37 12) A1)))
                   #b00))
           (a!4 (= ((_ extract 26 6)
                     (bvadd ((_ extract 37 10) B1) (concat #b000000 Z1)))
                   #b000000000000000000000))
           (a!5 (= ((_ extract 5 4)
                     (bvadd ((_ extract 37 10) B1) (concat #b000000 Z1)))
                   #b00))
           (a!6 (= ((_ extract 3 2)
                     (bvadd ((_ extract 37 10) B1) (concat #b000000 Z1)))
                   #b00))
           (a!7 (or ((_ bit2bool 2) J)
                    ((_ bit2bool 2) L2)
                    ((_ bit2bool 1) L2)
                    ((_ bit2bool 1) J)
                    (not (= ((_ extract 2 2) S) #b1))))
           (a!8 (= ((_ extract 3 2)
                     (bvadd (concat #x00 N) ((_ extract 37 8) C1)))
                   #b00))
           (a!9 (= ((_ extract 5 4)
                     (bvadd (concat #x00 N) ((_ extract 37 8) C1)))
                   #b00))
           (a!10 (= ((_ extract 7 6)
                      (bvadd (concat #x00 N) ((_ extract 37 8) C1)))
                    #b00))
           (a!11 (= ((_ extract 28 8)
                      (bvadd (concat #x00 N) ((_ extract 37 8) C1)))
                    #b000000000000000000000))
           (a!12 (= ((_ extract 30 10)
                      (bvadd (concat #b0000000000 B2) ((_ extract 37 6) N2)))
                    #b000000000000000000000))
           (a!13 (= ((_ extract 9 8)
                      (bvadd (concat #b0000000000 B2) ((_ extract 37 6) N2)))
                    #b00))
           (a!14 (= ((_ extract 5 4)
                      (bvadd (concat #b0000000000 B2) ((_ extract 37 6) N2)))
                    #b00))
           (a!15 (= ((_ extract 3 2)
                      (bvadd (concat #b0000000000 B2) ((_ extract 37 6) N2)))
                    #b00))
           (a!16 (= ((_ extract 7 6)
                      (bvadd (concat #b0000000000 B2) ((_ extract 37 6) N2)))
                    #b00))
           (a!17 (= ((_ extract 11 10)
                      (bvadd (concat #x000 X2) ((_ extract 37 4) D1)))
                    #b00))
           (a!18 (= ((_ extract 5 4)
                      (bvadd (concat #x000 X2) ((_ extract 37 4) D1)))
                    #b00))
           (a!19 (= ((_ extract 7 6)
                      (bvadd (concat #x000 X2) ((_ extract 37 4) D1)))
                    #b00))
           (a!20 (= ((_ extract 3 2)
                      (bvadd (concat #x000 X2) ((_ extract 37 4) D1)))
                    #b00))
           (a!21 (= ((_ extract 9 8)
                      (bvadd (concat #x000 X2) ((_ extract 37 4) D1)))
                    #b00))
           (a!22 (= ((_ extract 32 12)
                      (bvadd (concat #x000 X2) ((_ extract 37 4) D1)))
                    #b000000000000000000000))
           (a!23 ((_ extract 13 12)
                   (bvadd (concat #b0 R1) (concat #b000 ((_ extract 21 2) L3)))))
           (a!24 ((_ extract 22 14)
                   (bvadd (concat #b0 R1) (concat #b000 ((_ extract 21 2) L3)))))
           (a!25 ((_ extract 22 2)
                   (bvadd (concat #b0 R1) (concat #b000 ((_ extract 21 2) L3)))))
           (a!27 (bvadd ((_ extract 33 2)
                          (bvadd (concat #x000 X2) ((_ extract 37 4) D1)))
                        (concat #b00000000000 Y #b0)))
           (a!28 ((_ extract 11 10)
                   (bvadd (concat #b0 R1) (concat #b000 ((_ extract 21 2) L3)))))
           (a!29 ((_ extract 9 8)
                   (bvadd (concat #b0 R1) (concat #b000 ((_ extract 21 2) L3)))))
           (a!30 (bvadd ((_ extract 31 4)
                          (bvadd (concat #b0000000000 B2) ((_ extract 37 6) N2)))
                        (concat #x00 I4)))
           (a!31 (= ((_ extract 26 6)
                      (bvadd ((_ extract 37 10) C1) (concat #x00 X)))
                    #b000000000000000000000))
           (a!32 (bvadd ((_ extract 29 2)
                          (bvadd (concat #x00 N) ((_ extract 37 8) C1)))
                        (concat #x00 X)))
           (a!33 ((_ extract 5 4)
                   (bvadd (concat #b0 R1) (concat #b000 ((_ extract 21 2) L3)))))
           (a!34 (bvadd ((_ extract 29 2)
                          (bvadd (concat #x00 N) ((_ extract 37 8) C1)))
                        (concat #b00000000000000000000000000
                                (bvxor ((_ extract 0 0) X) ((_ extract 1 1) X))
                                ((_ extract 0 0) X))))
           (a!35 ((_ extract 7 6)
                   (bvadd (concat #b0 R1) (concat #b000 ((_ extract 21 2) L3)))))
           (a!36 ((_ extract 3 2)
                   (bvadd (concat #b0 R1) (concat #b000 ((_ extract 21 2) L3)))))
           (a!37 (or ((_ bit2bool 1) G3)
                     (= ((_ extract 5 4) D1) (bvmul #b11 ((_ extract 1 0) X2)))
                     (= ((_ extract 2 2) Y) #b1)))
           (a!38 (bvnot (bvor (bvnot ((_ extract 18 0) Z2))
                              (bvnot ((_ extract 19 1) Z2)))))
           (a!40 (or ((_ bit2bool 1) I1)
                     ((_ bit2bool 2) I1)
                     (= ((_ extract 5 4) D1) (bvmul #b11 ((_ extract 1 0) X2)))))
           (a!41 (or (not (= ((_ extract 1 1) F3) #b1))
                     ((_ bit2bool 1) M1)
                     ((_ bit2bool 2) M1)
                     ((_ bit2bool 0) M1)
                     ((_ bit2bool 1) V2)))
           (a!42 (or ((_ bit2bool 0) R1)
                     ((_ bit2bool 1) Z)
                     ((_ bit2bool 2) I3)
                     (= ((_ extract 3 2) L3) (bvmul #b11 ((_ extract 1 0) R1)))))
           (a!43 (or ((_ bit2bool 0) I3)
                     ((_ bit2bool 1) I3)
                     ((_ bit2bool 2) I3)
                     (= ((_ extract 3 2) L3) (bvmul #b11 ((_ extract 1 0) R1)))))
           (a!44 (or ((_ bit2bool 2) Z)
                     ((_ bit2bool 0) R1)
                     ((_ bit2bool 1) Z)
                     (= ((_ extract 3 2) L3) (bvmul #b11 ((_ extract 1 0) R1)))))
           (a!45 (or ((_ bit2bool 2) Z)
                     ((_ bit2bool 0) Z)
                     ((_ bit2bool 1) Z)
                     (= ((_ extract 3 2) L3) (bvmul #b11 ((_ extract 1 0) R1)))))
           (a!46 (or ((_ bit2bool 2) G3)
                     ((_ bit2bool 1) G3)
                     (= ((_ extract 5 4) D1) (bvmul #b11 ((_ extract 1 0) X2)))))
           (a!47 (or ((_ bit2bool 1) L1)
                     ((_ bit2bool 0) Z)
                     ((_ bit2bool 1) Z)
                     ((_ bit2bool 0) L1)
                     (= ((_ extract 3 2) L3) (bvmul #b11 ((_ extract 1 0) R1)))))
           (a!48 (or ((_ bit2bool 1) L1)
                     ((_ bit2bool 2) Z)
                     ((_ bit2bool 2) L1)
                     (= ((_ extract 3 2) L3) (bvmul #b11 ((_ extract 1 0) R1)))))
           (a!49 (or ((_ bit2bool 1) L1)
                     ((_ bit2bool 2) L1)
                     ((_ bit2bool 0) L1)
                     (= ((_ extract 3 2) L3) (bvmul #b11 ((_ extract 1 0) R1))))))
     (let ((a!26 (= ((_ extract 32 12)
                      (bvadd (concat #b0000000000000 a!25)
                             (concat #b00000000000000 Z)))
                    #b000000000000000000000))
           (a!39 (not (= (concat #b00 ((_ extract 18 1) Z2))
                         (bvmul #xfffff (concat #b0 a!38))))))
     (let ((a!50 (and (or ((_ bit2bool 0) G4)
                          ((_ bit2bool 1) G4)
                          ((_ bit2bool 2) G4)
                          (= ((_ extract 36 0) K3)
                             #b0000000000000000000000000000000000000))
                      (not ((_ bit2bool 9) P3))
                      (not ((_ bit2bool 8) P3))
                      (not ((_ bit2bool 7) P3))
                      (not ((_ bit2bool 6) P3))
                      (not ((_ bit2bool 5) P3))
                      (not ((_ bit2bool 4) P3))
                      (not ((_ bit2bool 3) P3))
                      (not ((_ bit2bool 2) P3))
                      (not ((_ bit2bool 1) P3))
                      (not ((_ bit2bool 0) P3))
                      (not ((_ bit2bool 3) K2))
                      (not ((_ bit2bool 2) K2))
                      (not ((_ bit2bool 1) K2))
                      (not ((_ bit2bool 0) K2))
                      (not ((_ bit2bool 7) A2))
                      (not ((_ bit2bool 6) A2))
                      (not ((_ bit2bool 5) A2))
                      (not ((_ bit2bool 4) A2))
                      (not ((_ bit2bool 3) A2))
                      (not ((_ bit2bool 2) A2))
                      (not ((_ bit2bool 1) A2))
                      (not ((_ bit2bool 0) A2))
                      (not ((_ bit2bool 1) V1))
                      (not ((_ bit2bool 0) V1))
                      (not ((_ bit2bool 13) P))
                      (not ((_ bit2bool 12) P))
                      (not ((_ bit2bool 11) P))
                      (not ((_ bit2bool 10) P))
                      (not ((_ bit2bool 9) P))
                      (not ((_ bit2bool 8) P))
                      (not ((_ bit2bool 7) P))
                      (not ((_ bit2bool 6) P))
                      (not ((_ bit2bool 5) P))
                      (not ((_ bit2bool 4) P))
                      (not ((_ bit2bool 3) P))
                      (not ((_ bit2bool 2) P))
                      (not ((_ bit2bool 1) P))
                      (not ((_ bit2bool 0) P))
                      (not ((_ bit2bool 13) O))
                      (not ((_ bit2bool 12) O))
                      (not ((_ bit2bool 11) O))
                      (not ((_ bit2bool 10) O))
                      (not ((_ bit2bool 9) O))
                      (not ((_ bit2bool 8) O))
                      (not ((_ bit2bool 7) O))
                      (not ((_ bit2bool 6) O))
                      (not ((_ bit2bool 5) O))
                      (not ((_ bit2bool 4) O))
                      (not ((_ bit2bool 3) O))
                      (not ((_ bit2bool 2) O))
                      (not ((_ bit2bool 1) O))
                      (not ((_ bit2bool 0) O))
                      (not (= ((_ extract 17 17) F3) #b1))
                      (not ((_ bit2bool 5) Y1))
                      (not ((_ bit2bool 4) Y1))
                      (not ((_ bit2bool 3) Y1))
                      (not ((_ bit2bool 2) Y1))
                      (not ((_ bit2bool 1) Y1))
                      (not ((_ bit2bool 0) Y1))
                      (not (= ((_ extract 17 17) M1) #b1))
                      (not (= ((_ extract 17 17) V2) #b1))
                      (or ((_ bit2bool 0) V2)
                          ((_ bit2bool 0) M1)
                          (not ((_ bit2bool 0) F3)))
                      (or ((_ bit2bool 1) M1)
                          ((_ bit2bool 0) V2)
                          ((_ bit2bool 1) V2)
                          (not (= F3 #b000000000000000010)))
                      (or ((_ bit2bool 0) J)
                          ((_ bit2bool 0) S)
                          (not ((_ bit2bool 0) L2)))
                      (= ((_ extract 20 0) U1)
                         (bvmul #b111111111111111111111 ((_ extract 36 16) W3)))
                      (or ((_ bit2bool 2) J)
                          ((_ bit2bool 1) J)
                          (not ((_ bit2bool 2) L2))
                          (not (= S #x00002)))
                      (or ((_ bit2bool 0) V2)
                          ((_ bit2bool 0) F3)
                          (not ((_ bit2bool 0) M1)))
                      (or ((_ bit2bool 0) L2)
                          ((_ bit2bool 0) J)
                          (not ((_ bit2bool 0) S)))
                      a!1
                      (= ((_ extract 15 14) H4)
                         (bvmul #b11 ((_ extract 1 0) W1)))
                      a!2
                      (= ((_ extract 13 12) A1)
                         (bvmul #b11 ((_ extract 1 0) X1)))
                      a!3
                      a!4
                      a!5
                      a!6
                      (= ((_ extract 11 10) B1)
                         (bvmul #b11 ((_ extract 1 0) Z1)))
                      a!7
                      (or (= ((_ extract 2 2) F3) #b1)
                          (not (= V2 #b000000000000000000))
                          (not ((_ bit2bool 2) M1)))
                      (= ((_ extract 9 8) C1) (bvmul #b11 ((_ extract 1 0) N)))
                      a!8
                      (or ((_ bit2bool 0) S)
                          (not ((_ bit2bool 0) J))
                          (= ((_ extract 0 0) L2) #b1))
                      (= ((_ extract 9 8) C1) #b00)
                      a!9
                      a!10
                      a!11
                      (or (not ((_ bit2bool 0) W2)) (= E4 #b1))
                      a!12
                      (= ((_ extract 36 16) A1) #b000000000000000000000)
                      a!13
                      a!14
                      (= ((_ extract 11 10) C1) #b00)
                      a!15
                      a!16
                      (= ((_ extract 7 6) N2) (bvmul #b11 ((_ extract 1 0) B2)))
                      (or ((_ bit2bool 1) M1)
                          ((_ bit2bool 1) F3)
                          (not ((_ bit2bool 1) V2))
                          (not ((_ bit2bool 2) V2))
                          (not ((_ bit2bool 0) V2)))
                      a!17
                      (or ((_ bit2bool 1) F3)
                          ((_ bit2bool 2) F3)
                          ((_ bit2bool 1) V2)
                          ((_ bit2bool 2) V2)
                          (not ((_ bit2bool 2) M1)))
                      a!18
                      a!19
                      a!20
                      a!21
                      a!22
                      (= a!23 #b00)
                      (or ((_ bit2bool 2) J)
                          ((_ bit2bool 0) J)
                          ((_ bit2bool 1) J)
                          (not ((_ bit2bool 2) L2))
                          (= ((_ extract 2 2) S) #b1))
                      (or ((_ bit2bool 0) L2)
                          ((_ bit2bool 1) L2)
                          ((_ bit2bool 0) J)
                          ((_ bit2bool 1) J)
                          (not ((_ bit2bool 1) S)))
                      (= a!24 #b000000000)
                      a!26
                      (or ((_ bit2bool 0) Y)
                          ((_ bit2bool 4) Y)
                          ((_ bit2bool 1) Y)
                          ((_ bit2bool 2) Y)
                          ((_ bit2bool 3) Y)
                          ((_ bit2bool 5) Y)
                          ((_ bit2bool 6) Y)
                          ((_ bit2bool 7) Y)
                          ((_ bit2bool 8) Y)
                          ((_ bit2bool 9) Y)
                          ((_ bit2bool 10) Y)
                          ((_ bit2bool 11) Y)
                          (= ((_ extract 30 10) a!27) #b000000000000000000000))
                      (= a!28 #b00)
                      (= a!29 #b00)
                      (or ((_ bit2bool 7) I4)
                          ((_ bit2bool 3) I4)
                          ((_ bit2bool 11) I4)
                          ((_ bit2bool 0) I4)
                          ((_ bit2bool 2) I4)
                          ((_ bit2bool 6) I4)
                          ((_ bit2bool 9) I4)
                          ((_ bit2bool 1) I4)
                          ((_ bit2bool 4) I4)
                          ((_ bit2bool 5) I4)
                          ((_ bit2bool 8) I4)
                          ((_ bit2bool 10) I4)
                          (= ((_ extract 26 6) a!30) #b000000000000000000000))
                      (or ((_ bit2bool 0) X)
                          ((_ bit2bool 1) X)
                          ((_ bit2bool 4) X)
                          ((_ bit2bool 2) X)
                          ((_ bit2bool 3) X)
                          ((_ bit2bool 5) X)
                          ((_ bit2bool 6) X)
                          ((_ bit2bool 7) X)
                          ((_ bit2bool 8) X)
                          ((_ bit2bool 9) X)
                          ((_ bit2bool 10) X)
                          ((_ bit2bool 11) X)
                          a!31)
                      (or ((_ bit2bool 1) X)
                          ((_ bit2bool 4) X)
                          ((_ bit2bool 2) X)
                          ((_ bit2bool 3) X)
                          ((_ bit2bool 5) X)
                          ((_ bit2bool 6) X)
                          ((_ bit2bool 7) X)
                          ((_ bit2bool 8) X)
                          ((_ bit2bool 9) X)
                          ((_ bit2bool 10) X)
                          ((_ bit2bool 11) X)
                          (= ((_ extract 0 0) X) #b1)
                          (= ((_ extract 26 6) a!32) #b000000000000000000000))
                      (= a!33 #b00)
                      (= ((_ extract 26 6) a!34) #b000000000000000000000)
                      (= a!35 #b00)
                      (or ((_ bit2bool 2) V2)
                          (not ((_ bit2bool 2) F3))
                          (not ((_ bit2bool 1) F3))
                          (not (= M1 #b000000000000000001)))
                      (or (= ((_ extract 1 1) F3) #b1)
                          ((_ bit2bool 1) M1)
                          ((_ bit2bool 0) M1)
                          (not (= V2 #b000000000000000010)))
                      (or ((_ bit2bool 1) L1) ((_ bit2bool 2) Z) (= a!36 #b00))
                      a!37
                      (or ((_ bit2bool 0) Z)
                          ((_ bit2bool 1) Z)
                          (= ((_ extract 1 0) L3) #b00))
                      (or (not (= Y #x00000)) (= ((_ extract 3 0) D1) #x0))
                      (or ((_ bit2bool 1) F4)
                          (not (= I4 #x00000))
                          (= ((_ extract 5 0) N2) #b000000))
                      (or ((_ bit2bool 3) W)
                          ((_ bit2bool 4) W)
                          ((_ bit2bool 5) W)
                          ((_ bit2bool 6) W)
                          ((_ bit2bool 7) W)
                          ((_ bit2bool 8) W)
                          ((_ bit2bool 9) W)
                          ((_ bit2bool 10) W)
                          ((_ bit2bool 0) W)
                          ((_ bit2bool 1) W)
                          ((_ bit2bool 2) W)
                          ((_ bit2bool 11) W)
                          ((_ bit2bool 1) K1)
                          (= ((_ extract 9 0) B1) #b0000000000))
                      (or ((_ bit2bool 1) S3)
                          ((_ bit2bool 0) Z2)
                          (= ((_ extract 11 0) A1) #x000)
                          a!39)
                      (or ((_ bit2bool 0) Y)
                          ((_ bit2bool 1) Y)
                          ((_ bit2bool 0) G3)
                          ((_ bit2bool 1) G3)
                          (= ((_ extract 3 0) D1) #x0))
                      (or ((_ bit2bool 1) L1)
                          ((_ bit2bool 0) L1)
                          (= ((_ extract 1 0) L3) #b00))
                      (or ((_ bit2bool 1) I3) ((_ bit2bool 2) I3) (= a!36 #b00))
                      (or ((_ bit2bool 2) S2)
                          ((_ bit2bool 1) S2)
                          (not (= I4 #x00000))
                          (= ((_ extract 5 0) N2) #b000000))
                      a!40
                      (or (not (= X #x00000))
                          ((_ bit2bool 1) G1)
                          ((_ bit2bool 2) G1)
                          (= ((_ extract 7 0) C1) #x00))
                      (or (not (= W #x00000))
                          ((_ bit2bool 2) C2)
                          ((_ bit2bool 1) C2)
                          (= ((_ extract 9 0) B1) #b0000000000))
                      (or (not (= Z2 #x00000))
                          ((_ bit2bool 1) F1)
                          ((_ bit2bool 2) F1)
                          (= ((_ extract 11 0) A1) #x000))
                      (or ((_ bit2bool 1) O2)
                          (not (= V #x00000))
                          ((_ bit2bool 2) O2)
                          (= ((_ extract 13 0) H4) #b00000000000000))
                      (or ((_ bit2bool 1) Z)
                          (= ((_ extract 1 0) L3) #b00)
                          (= ((_ extract 0 0) I3) #b1))
                      (or ((_ bit2bool 0) Z)
                          ((_ bit2bool 1) I3)
                          (= ((_ extract 1 0) L3) #b00))
                      (or ((_ bit2bool 1) I3)
                          (= ((_ extract 1 0) L3) #b00)
                          (= ((_ extract 0 0) I3) #b1))
                      (or ((_ bit2bool 0) G1)
                          ((_ bit2bool 1) G1)
                          ((_ bit2bool 2) G1)
                          (= ((_ extract 7 0) C1) #x00))
                      (or ((_ bit2bool 2) S2)
                          ((_ bit2bool 0) S2)
                          ((_ bit2bool 1) S2)
                          (= ((_ extract 5 0) N2) #b000000))
                      (or ((_ bit2bool 0) C2)
                          ((_ bit2bool 2) C2)
                          ((_ bit2bool 1) C2)
                          (= ((_ extract 9 0) B1) #b0000000000))
                      (or ((_ bit2bool 0) I1)
                          ((_ bit2bool 1) I1)
                          ((_ bit2bool 2) I1)
                          (= ((_ extract 3 0) D1) #x0))
                      (or ((_ bit2bool 0) F1)
                          ((_ bit2bool 1) F1)
                          ((_ bit2bool 2) F1)
                          (= ((_ extract 11 0) A1) #x000))
                      (or ((_ bit2bool 0) E1)
                          ((_ bit2bool 1) E1)
                          ((_ bit2bool 2) E1)
                          (= ((_ extract 15 0) W3) #x0000))
                      (or ((_ bit2bool 1) O2)
                          ((_ bit2bool 0) O2)
                          ((_ bit2bool 2) O2)
                          (= ((_ extract 13 0) H4) #b00000000000000))
                      (or (= Q1 #b0000000000000000000000000000000000000)
                          ((_ bit2bool 2) R)
                          ((_ bit2bool 1) R)
                          ((_ bit2bool 0) R))
                      (or ((_ bit2bool 0) J3)
                          ((_ bit2bool 1) J3)
                          ((_ bit2bool 2) J3)
                          (= ((_ extract 36 0) K3)
                             #b0000000000000000000000000000000000000))
                      a!41
                      a!42
                      a!43
                      a!44
                      a!45
                      (or (not (= X #x00000))
                          ((_ bit2bool 1) F2)
                          (= ((_ extract 7 0) C1) #x00))
                      (or ((_ bit2bool 1) J1)
                          (not (= V #x00000))
                          (= ((_ extract 13 0) H4) #b00000000000000))
                      a!46
                      (or ((_ bit2bool 1) L1) ((_ bit2bool 2) L1) (= a!36 #b00))
                      a!47
                      a!48
                      a!49
                      (or ((_ bit2bool 2) G3)
                          ((_ bit2bool 0) G3)
                          ((_ bit2bool 1) G3)
                          (= ((_ extract 3 0) D1) #x0))
                      (or ((_ bit2bool 1) F2)
                          ((_ bit2bool 0) F2)
                          ((_ bit2bool 2) F2)
                          (= ((_ extract 7 0) C1) #x00))
                      (or ((_ bit2bool 0) F4)
                          ((_ bit2bool 1) F4)
                          ((_ bit2bool 2) F4)
                          (= ((_ extract 5 0) N2) #b000000))
                      (or ((_ bit2bool 2) J1)
                          ((_ bit2bool 0) J1)
                          ((_ bit2bool 1) J1)
                          (= ((_ extract 13 0) H4) #b00000000000000))
                      (or ((_ bit2bool 2) K1)
                          ((_ bit2bool 0) K1)
                          ((_ bit2bool 1) K1)
                          (= ((_ extract 9 0) B1) #b0000000000))
                      (or ((_ bit2bool 0) S3)
                          ((_ bit2bool 1) S3)
                          ((_ bit2bool 2) S3)
                          (= ((_ extract 11 0) A1) #x000))
                      (or ((_ bit2bool 0) H3)
                          ((_ bit2bool 1) H3)
                          ((_ bit2bool 2) H3)
                          (= ((_ extract 15 0) W3) #x0000))
                      (or (= Q1 #b0000000000000000000000000000000000000)
                          ((_ bit2bool 2) Q)
                          ((_ bit2bool 0) Q)
                          ((_ bit2bool 1) Q)))))
       (= (INV!slice!1 A
                       B
                       C
                       D
                       E
                       F
                       G
                       H
                       I
                       J
                       K
                       L
                       M
                       N
                       O
                       P
                       Q
                       R
                       S
                       T
                       U
                       V
                       W
                       X
                       Y
                       Z
                       A1
                       B1
                       C1
                       D1
                       E1
                       F1
                       G1
                       H1
                       I1
                       J1
                       K1
                       L1
                       M1
                       N1
                       O1
                       P1
                       Q1
                       R1
                       S1
                       T1
                       U1
                       V1
                       W1
                       X1
                       Y1
                       Z1
                       A2
                       B2
                       C2
                       D2
                       E2
                       F2
                       G2
                       H2
                       I2
                       J2
                       K2
                       L2
                       M2
                       N2
                       O2
                       P2
                       Q2
                       R2
                       S2
                       T2
                       U2
                       V2
                       W2
                       X2
                       Y2
                       Z2
                       A3
                       B3
                       C3
                       D3
                       E3
                       F3
                       G3
                       H3
                       I3
                       J3
                       K3
                       L3
                       M3
                       N3
                       O3
                       P3
                       Q3
                       R3
                       S3
                       T3
                       U3
                       V3
                       W3
                       X3
                       Y3
                       Z3
                       A4
                       B4
                       C4
                       D4
                       E4
                       F4
                       G4
                       H4
                       I4
                       J4
                       K4
                       L4
                       M4
                       N4
                       O4)
          a!50))))
     :weight 0))
